p cnf 53 78
-1 -2 -3 50 -15 0 
-4 50 -15 0 
-3 50 -15 0 
-1 -5 50 -15 0 
-6 -7 -4 50 -15 0 
-8 -4 50 -15 0 
-9 -4 50 -15 0 
-2 -4 50 -15 0 
-5 50 -15 0 
-6 -2 -4 50 -15 0 
-10 50 -15 0 
-11 -8 -4 50 -15 0 
-4 -7 -6 -9 50 -15 0 
-12 -4 50 -15 0 
-6 51 -4 0 
-13 52 -3 0 
-5 52 -3 0 
-14 -15 52 -3 0 
-11 51 -4 0 
-16 52 -3 0 
-17 51 -4 0 
-18 45 52 -3 0 
-13 -7 52 -3 0 
-14 -19 52 -3 0 
-4 -7 -14 52 -3 0 
-20 -21 -9 -7 -22 52 -3 0 
-23 -7 -24 52 -3 0 
-1 -2 -13 52 -3 0 
-25 52 -3 0 
-14 -4 -26 35 47 52 -3 0 
-4 -14 52 -3 0 
-27 52 -3 0 
-28 38 -7 -4 52 -3 0 
-12 -20 -29 40 -21 -30 52 -3 0 
-21 -31 -4 52 -3 0 
-32 52 -3 0 
-33 -23 -34 52 -3 0 
-24 -35 26 47 52 -3 0 
-6 -9 -4 52 -3 0 
-23 52 -3 0 
-36 44 52 -3 0 
-37 52 -3 0 
-38 28 -27 -39 -7 -22 52 -3 0 
-14 -4 52 -3 0 
-15 -5 52 -3 0 
-1 -7 -4 50 -15 0 
-7 50 -15 0 
-6 -4 50 -15 0 
-25 50 -15 0 
-27 50 -15 0 
-6 -7 -5 50 -15 0 
-39 50 -15 0 
-11 -40 29 50 -15 0 
-7 -4 50 -15 0 
-1 -6 -4 50 -15 0 
-41 -42 50 -15 0 
-10 51 -4 0 
-12 -11 -4 50 -15 0 
-6 -9 -4 50 -15 0 
-28 38 52 -3 0 
-28 38 -43 52 -3 0 
-29 40 52 -3 0 
-29 40 -44 36 50 -15 0 
-6 -28 38 52 -3 0 
-13 -9 -7 -4 52 -3 0 
-15 -14 52 -3 0 
-4 -14 -9 -7 -22 52 -3 0 
-29 40 -4 -25 52 -3 0 
-4 -25 52 -3 0 
-45 18 52 -3 0 
-23 -8 -4 52 -3 0 
-46 53 0 
-1 51 -4 0 
-12 -13 52 -3 0 
-4 -47 26 35 52 -3 0 
-38 28 -22 52 -3 0 
-24 -48 50 -15 0 
-41 -49 50 -15 0 
